15
1 0 3
2 0 3
2 1 4
3 0 4
3 1 7
3 2 5
4 0 1
4 1 5
4 2 3
4 3 5
5 0 3
5 1 5
5 2 8
5 3 8
5 4 3
6 0 5
6 1 5
6 2 5
6 3 3
6 4 7
6 5 2
7 0 3
7 1 1
7 2 1
7 3 8
7 4 3
7 5 8
7 6 1
8 0 5
8 1 1
8 2 2
8 3 1
8 4 7
8 5 1
8 6 7
8 7 2
9 0 4
9 1 7
9 2 7
9 3 5
9 4 3
9 5 2
9 6 7
9 7 1
9 8 5
10 0 8
10 1 7
10 2 1
10 3 2
10 4 4
10 5 3
10 6 4
10 7 5
10 8 6
10 9 5
11 0 1
11 1 6
11 2 4
11 3 8
11 4 2
11 5 6
11 6 8
11 7 3
11 8 5
11 9 4
11 10 5
12 0 7
12 1 5
12 2 2
12 3 7
12 4 4
12 5 3
12 6 3
12 7 6
12 8 3
12 9 6
12 10 1
12 11 5
13 0 3
13 1 1
13 2 8
13 3 8
13 4 1
13 5 1
13 6 2
13 7 6
13 8 5
13 9 2
13 10 6
13 11 5
13 12 8
14 0 2
14 1 6
14 2 8
14 3 2
14 4 5
14 5 2
14 6 6
14 7 7
14 8 5
14 9 3
14 10 3
14 11 7
14 12 4
14 13 2
